
Gurobi 11.0.3 (linux64) logging started Sat Nov 23 05:41:24 2024

Set parameter LogFile to value "/home/yihong/Coding/OR_SUC/SUC_results_bigM100000_thread4/case24_ieee_rts_theta0.5_epsilon0.05_gurobi_seed10000_num_gen100_N_WDR50_load_scaling_factor1_exact_T24quadra_cost.txt"
Set parameter TimeLimit to value 3600
Gurobi Optimizer version 11.0.3 build v11.0.3rc0 (linux64 - "Ubuntu 20.04.6 LTS")

CPU model: AMD EPYC 7532 32-Core Processor, instruction set [SSE2|AVX|AVX2]
Thread count: 64 physical cores, 128 logical processors, using up to 4 threads

Optimize a model with 51943 rows, 29861 columns and 712638 nonzeros
Model fingerprint: 0xf0a409a4
Model has 2400 quadratic constraints
Variable types: 27411 continuous, 2450 integer (2450 binary)
Coefficient statistics:
  Matrix range     [3e-04, 1e+05]
  QMatrix range    [2e-03, 8e-03]
  QLMatrix range   [3e-01, 6e+01]
  Objective range  [1e+00, 1e+00]
  Bounds range     [1e+00, 1e+00]
  RHS range        [1e+00, 1e+05]
Presolve removed 42057 rows and 12904 columns
Presolve time: 0.25s
Presolved: 9886 rows, 16957 columns, 62344 nonzeros
Presolved model has 2400 quadratic constraint(s)
Variable types: 14511 continuous, 2446 integer (2446 binary)

Root relaxation: objective 4.454702e+04, 7656 iterations, 0.19 seconds (0.29 work units)

    Nodes    |    Current Node    |     Objective Bounds      |     Work
 Expl Unexpl |  Obj  Depth IntInf | Incumbent    BestBd   Gap | It/Node Time

     0     0 44547.0162    0    5          - 44547.0162      -     -    0s
     0     0 321799.601    0  739          - 321799.601      -     -    1s
     0     0 344325.097    0  670          - 344325.097      -     -    1s
     0     0 615963.493    0  681          - 615963.493      -     -    1s
     0     0 616010.115    0  456          - 616010.115      -     -    1s
     0     0 616579.779    0  280          - 616579.779      -     -    1s
     0     0 616615.660    0  279          - 616615.660      -     -    1s
     0     0 616831.869    0  277          - 616831.869      -     -    1s
     0     0 616833.520    0  277          - 616833.520      -     -    1s
     0     2 616833.520    0  277          - 616833.520      -     -    2s
   142   157 617068.069   28  234          - 616993.434      -  53.6    5s
H  472   277                    617085.29244 616993.434  0.01%  31.4    7s
*  472   277             149    617085.29244 616993.434  0.01%  31.4    7s

Cutting planes:
  Gomory: 2
  Implied bound: 356
  MIR: 101
  Flow cover: 123
  PSD: 1

Explored 520 nodes (37718 simplex iterations) in 8.08 seconds (11.41 work units)
Thread count was 4 (of 128 available processors)

Solution count 2: 617085 617085 

Optimal solution found (tolerance 1.00e-03)
Warning: max constraint violation (7.0457e-07) exceeds tolerance
Best objective 6.170852924426e+05, best bound 6.169934343619e+05, gap 0.0149%
